p cnf 5 11
-1 2 -3 -4 0 
-1 -2 3 -4 0 
1 2 -3 4 0 
1 -2 3 4 0 
1 2 3 -4 0 
-1 -2 -3 4 0 
1 -5 -4 0 
-1 5 4 0

c -1 2 -3 5
c -1 -2 3 5
c 1 2 -3 -5
c 1 -2 3 -5

-6 2 -3 -7 0 
-6 -2 3 -7 0 
6 2 -3 7 0 
6 -2 3 7 0 
6 2 3 -7 0 
-6 -2 -3 7 0 
6 -5 -7 0 
-6 5 7 0  

c -6 2 -3 5
c -6 -2 3 5
c 6 2 -3 -5
c 6 -2 3 -5

2 3 -5 0
-2 -3 5 0

4 7 0


c 2 3
c 1 -2 3
c -1 -3
c 2 -3

